26
9
23 10 13 1 14 18 22 8 15 4 7 20 24 0 25 16 5 3 19 2 21 12 6 17 11 9
10 19 13 4 6 22 1 0 3 16 20
24 5 22 8 25 20 18 0 4 17 10 2 16 15 9 21 3 14 6 1 7 12 19
1 12 13 17 2 15 22 25
2 23 21 4 0 12 10 24 20 7 3 18 19 5 14 11 13 17 9 16 1 15 22 25 8 6
19 6 13 9 3 25 5 18 14 4 17 20 23 11 7 22
0 10 14 15 18 17 1 22 6 9 25 13 4 23 11 8 21 16 19 5 24 20 7 3
25 5 20 24 12 3 18 15 19 22 6 17
0 2 3 17 13 16 24 15 7 12 21 23
